n = 100;
C = 502;
w = [922,649,942,3,785,41,219,437,994,284,416,202,883,801,97,442,478,683,451,633,413,917,734,709,195,504,665,541,792,266,205,352,477,489,36,652,961,777,147,128,515,690,806,140,282,685,283,167,785,304,634,649,126,744,203,98,126,239,153,691,273,671,309,900,748,533,461,621,382,385,559,825,882,878,265,464,47,205,67,604,909,998,23,918,537,953,575,98,962,369,584,928,269,507,710,924,486,719,65,24];
p = [922,649,942,3,785,41,219,437,994,284,416,202,883,801,97,442,478,683,451,633,413,917,734,709,195,504,665,541,792,266,205,352,477,489,36,652,961,777,147,128,515,690,806,140,282,685,283,167,785,304,634,649,126,744,203,98,126,239,153,691,273,671,309,900,748,533,461,621,382,385,559,825,882,878,265,464,47,205,67,604,909,998,23,918,537,953,575,98,962,369,584,928,269,507,710,924,486,719,65,24];
